(set-logic QF_S)
(declare-fun var0 () String)
(assert (str.in.re var0 (re.++ (re.* (re.union (str.to.re "000") (str.to.re "1"))) (re.++ (re.union (re.* (str.to.re "2")) (re.* (str.to.re "3"))) (re.++ (re.union (re.* (str.to.re "4")) (re.* (str.to.re "5"))) (re.++ (re.* (re.+ (str.to.re "666"))) (re.++ (re.union (re.+ (str.to.re "77")) (re.+ (str.to.re "8"))) (re.++ (re.+ (re.* (str.to.re "99"))) (re.++ (re.+ (re.union (str.to.re "aa") (str.to.re "bb"))) (re.++ (re.* (re.+ (str.to.re "cc"))) (re.++ (re.+ (re.* (str.to.re "d"))) (re.++ (re.union (re.+ (str.to.re "eee")) (re.+ (str.to.re "f"))) (re.++ (re.union (re.union (str.to.re "g") (str.to.re "hh")) (re.union (str.to.re "iii") (str.to.re "jj"))) (re.++ (re.+ (re.union (str.to.re "kkk") (str.to.re "l"))) (re.++ (re.+ (re.* (str.to.re "mm"))) (re.++ (re.union (re.+ (str.to.re "n")) (re.union (str.to.re "o") (str.to.re "ppp"))) (re.++ (re.* (re.union (str.to.re "q") (str.to.re "r"))) (re.++ (re.union (re.* (str.to.re "ss")) (re.union (str.to.re "t") (str.to.re "u"))) (re.++ (re.* (re.+ (str.to.re "vv"))) (re.++ (re.union (re.+ (str.to.re "w")) (re.+ (str.to.re "xx"))) (re.++ (re.* (re.union (str.to.re "yyy") (str.to.re "z"))) (re.++ (re.* (re.+ (str.to.re "AAA"))) (re.++ (re.union (re.union (str.to.re "B") (str.to.re "C")) (re.+ (str.to.re "D"))) (re.++ (re.+ (re.+ (str.to.re "EEE"))) (re.++ (re.union (re.+ (str.to.re "FF")) (re.+ (str.to.re "G"))) (re.++ (re.+ (re.union (str.to.re "HH") (str.to.re "I"))) (re.++ (re.* (re.* (str.to.re "J"))) (re.++ (re.union (re.* (str.to.re "K")) (re.+ (str.to.re "LLL"))) (re.++ (re.* (re.union (str.to.re "M") (str.to.re "NN"))) (re.++ (re.+ (re.union (str.to.re "OO") (str.to.re "P"))) (re.++ (re.union (re.+ (str.to.re "QQ")) (re.+ (str.to.re "R"))) (re.++ (re.* (re.union (str.to.re "SS") (str.to.re "TT"))) (re.++ (re.+ (re.union (str.to.re "UU") (str.to.re "VVV"))) (re.++ (re.+ (re.* (str.to.re "WWW"))) (re.++ (re.* (re.* (str.to.re "XX"))) (re.++ (re.union (re.union (str.to.re "Y") (str.to.re "ZZ")) (re.union (str.to.re "!!") (str.to.re """"))) (re.++ (re.+ (re.union (str.to.re "#") (str.to.re "$"))) (re.++ (re.+ (re.union (str.to.re "%%") (str.to.re "&&"))) (re.++ (re.+ (re.union (str.to.re "'''") (str.to.re "("))) (re.++ (re.* (re.union (str.to.re "))") (str.to.re "*"))) (re.++ (re.+ (re.+ (str.to.re "+"))) (re.++ (re.union (re.+ (str.to.re ",,")) (re.+ (str.to.re "-"))) (re.++ (re.* (re.* (str.to.re ".."))) (re.++ (re.union (re.union (str.to.re "/") (str.to.re "::")) (re.* (str.to.re ";;;"))) (re.++ (re.* (re.+ (str.to.re "<<"))) (re.++ (re.+ (re.+ (str.to.re "=="))) (re.++ (re.+ (re.+ (str.to.re ">>"))) (re.++ (re.union (re.union (str.to.re "?") (str.to.re "@@@")) (re.+ (str.to.re "[["))) (re.++ (re.union (re.+ (str.to.re "\\")) (re.* (str.to.re "]]"))) (re.++ (re.+ (re.* (str.to.re "^"))) (re.++ (re.union (re.* (str.to.re "_")) (re.+ (str.to.re "`"))) (re.++ (re.* (re.+ (str.to.re "{"))) (re.++ (re.+ (re.union (str.to.re "|") (str.to.re "}}}"))) (re.++ (re.union (re.+ (str.to.re "~~")) (re.union (str.to.re "000") (str.to.re "11"))) (re.++ (re.* (re.* (str.to.re "2"))) (re.++ (re.union (re.* (str.to.re "33")) (re.+ (str.to.re "4"))) (re.+ (re.* (str.to.re "55")))))))))))))))))))))))))))))))))))))))))))))))))))))))))))
(check-sat)